(declare-const |tmp___0':106:118| Int)
(declare-const |phi_tmp___0:99:119| Int)
(declare-const |va':104:117| Int)
(declare-const |vb':105:116| Int)
(declare-const |phi_tmp:71:75:77| Int)
(declare-const |havoc:62:72:120| Int)
(declare-const |havoc:0| Int)
(declare-const |tmp___0:63:124| Int)
(declare-const |phi_tmp___1:24| Int)
(declare-const |havoc:2| Int)
(declare-const |K:113:114| Int)
(declare-const |__cost':103:115| Int)
(declare-const |phi_tmp:76:78| Int)
(assert (and (or (and (< (- |havoc:0|) 0)
                        (or (and (<= |havoc:2| 0)
                                   (= (- |phi_tmp:71:75:77|) 0))
                              (and (< (- |havoc:2|) 0)
                                     (= (+ (- |phi_tmp:71:75:77|) 1) 0)))
                        (= (+ (- |phi_tmp:76:78|) |phi_tmp:71:75:77|) 0))
                   (and (<= |havoc:0| 0) (= (- |phi_tmp:76:78|) 0)))
               (not (= |phi_tmp:76:78| 0))
               (or (not (<= (- |K:113:114|) 0))
                     (= (+ |__cost':103:115| (- |K:113:114|)) 0))
               (or (not (<= (- |K:113:114|) 0))
                     (<= (+ (* 2 |va':104:117|) |vb':105:116| |K:113:114|
                              (* -2 |havoc:0|)) 0))
               (or (not (<= (- |K:113:114|) 0))
                     (<= (+ |va':104:117| (- |havoc:0|)) 0))
               (or (not (<= (- |K:113:114|) 0))
                     (<= (+ (- |va':104:117|) (- |K:113:114|) |havoc:0|) 0))
               (or (and (= |K:113:114| 0)
                          (= (+ (- |tmp___0':106:118|) |tmp___0:63:124|) 0)
                          (= (- |vb':105:116|) 0)
                          (= (+ (- |va':104:117|) |havoc:0|) 0)
                          (= (- |__cost':103:115|) 0))
                     (and (<= (+ (- |K:113:114|) 1) 0)
                            (<= (+ (- |havoc:0|) 1) 0)
                            (<= (+ (- |havoc:2|) 1) 0)
                            (<= (+ |vb':105:116| (- |havoc:2|)) 0)
                            (<= (+ (- |__cost':103:115|) 1) 0)
                            (<= (- |va':104:117|) 0)
                            (<= (+ (- |havoc:2|) 1) 0)
                            (<= (- |vb':105:116|) 0)
                            (<= (+ (- |va':104:117|) (- |vb':105:116|) 1) 0)))
               (<= (- |K:113:114|) 0) (<= (- |vb':105:116|) 0)
               (<= (- |va':104:117|) 0) (< (- |havoc:2|) 0)
               (or (and (<= |va':104:117| 0)
                          (= (+ (- |phi_tmp___0:99:119|) |tmp___0':106:118|) 0))
                     (and (< (- |va':104:117|) 0) (= |havoc:62:72:120| 0)
                            (= (+ |havoc:62:72:120| (- |phi_tmp___0:99:119|)) 0)))
               (or (and (<= |havoc:0| 0) (= (- |phi_tmp___1:24|) 0))
                     (and (< (- |havoc:0|) 0)
                            (= (+ (- |phi_tmp___1:24|) |havoc:0|) 0)))
               (not (<= (+ (* -2 |phi_tmp___1:24|) |__cost':103:115| -1) 0))))
(check-sat)
